decision_x1=[0,2];
decision_x2=[0,2];
decision_x3=[0,2];
decision_x4=[0,2];
decision_x5=[0,2];
random_y1=[0,2];
constraint_x3_x1=[
0,1,7.8|
0,2,3.9|
1,0,1.8|
1,2,5.4|
2,0,4|
2,1,2.3|
];
constraint_x4_x3=[
0,1,8.1|
0,2,2.3|
1,0,6.7|
1,2,5|
2,0,9.8|
2,1,2.9|
];
constraint_x5_x2=[
0,1,5.2|
0,2,6.5|
1,0,4.9|
1,2,0.61|
2,0,9.4|
2,1,1.3|
];
constraint_x5_x3=[
0,1,2.8|
0,2,2.7|
1,0,3.7|
1,2,2|
2,0,4|
2,1,6.8|
];
constraint_x5_x4=[
0,1,7.4|
0,2,6.4|
1,0,1.2|
1,2,9.1|
2,0,8.4|
2,1,4.9|
];
constraint_x1_y1=[
0,0,9.9|
0,1,4.5|
0,2,1.7|
1,0,4.2|
1,1,0.089|
1,2,3|
2,0,9.4|
2,1,9|
2,2,6|
];
initial_distribution_y1=[0.28,0.35,0.37];
transition_y1=[
0.39,0.45,0.16|
0.5,0.063,0.43|
0.47,0.43,0.1|
];
